data/processed_heuristic-threshold/instances/1/9/ds_1013_courier_87/pairwise.tsp
NAME: ds_1013_courier_87
TYPE: TSP
COMMENT: nil
DIMENSION: 10
EDGE_WEIGHT_TYPE: EXPLICIT
EDGE_WEIGHT_FORMAT: FULL_MATRIX
EDGE_WEIGHT_SECTION
9999 1307 1554 1720 1054 1154 1430 851 1147 507 
1307 9999 492 646 775 617 910 542 318 1208 
1554 492 9999 175 1257 1107 1398 961 418 1590 
1720 646 175 9999 1419 1262 1538 1134 592 1764 
1054 775 1257 1419 9999 187 378 393 922 674 
1154 617 1107 1262 187 9999 360 369 807 827 
1430 910 1398 1538 378 360 9999 722 1147 1017 
851 542 961 1134 393 369 722 9999 575 667 
1147 318 418 592 922 807 1147 575 9999 1175 
507 1208 1590 1764 674 827 1017 667 1175 9999 
