data/processed_heuristic-threshold/instances/1/9/ds_1013_courier_87/pairwise.sol
10
0 9 4 6 5 1 3 2 8 7 
